%Se toman los parámetros del problema inicial
p = 120000;
n = 3;
m = 3;

AB = array2d(1..n,1..m, [
  120,  100,  74,
  60,   2.5,  4.0,
  105,  3,    12,
]);

C = [0.58, 1.55, 0.85];

D = array2d(1..n,1..2,[
  89, -1,
  0,  11,
  17, -1,   
]);

